&CONTROL
calculation='scf'
restart_mode='from_scratch'
outdir='./tmp'
pseudo_dir='./'
prefix='MgB2'
wf_collect=.true.
/

&SYSTEM
ibrav=0
nat=3
ntyp=2
ecutwfc=90.0
ecutrho=360.0
nspin=1
occupations='smearing'
degauss=0.01D0
smearing='methfessel-paxton'
/

&ELECTRONS
conv_thr=1.0e-8
mixing_beta=0.3
/

ATOMIC_SPECIES
Mg 24.31 Mg.UPF
B  10.81  b.UPF

CELL_PARAMETERS angstrom
    3.0627620600     0.0000000000     0.0000000000
   -1.5313810300     2.6524297497     0.0000000000
    0.0000000000     0.0000000000     3.5208704800

ATOMIC_POSITIONS crystal
Mg	0.0000000000	0.0000000000	0.0000000000
B	0.3333333333	0.6666666667	0.5000000000
B	0.6666666667	0.3333333333	0.5000000000

K_POINTS automatic
18 18 1 0 0 0
