&CONTROL
calculation='bands'
restart_mode='from_scratch'
outdir='./tmp'
pseudo_dir='./'
prefix='MgB2'
etot_conv_thr=1.0D-10
wf_collect=.true.
/

&SYSTEM
ibrav=0
nat=3
ntyp=2
ecutwfc=90.0
ecutrho=360.0
nspin=1
nbnd=16
occupations='smearing'
degauss=0.01D0
smearing='methfessel-paxton'
/

&ELECTRONS
conv_thr=1.0e-8
mixing_beta=0.3
/

ATOMIC_SPECIES
B 10.81 b.UPF
Mg  24.31  Mg.UPF

CELL_PARAMETERS angstrom
    3.0627620600     0.0000000000     0.0000000000
   -1.5313810300     2.6524297497     0.0000000000
    0.0000000000     0.0000000000     3.5208704800

ATOMIC_POSITIONS crystal
Mg	0.0000000000	0.0000000000	0.0000000000
B	0.3333333333	0.6666666667	0.5000000000
B	0.6666666667	0.3333333333	0.5000000000


K_POINTS crystal
355
    0.0000000000     0.0000000000     0.0000000000 1
    0.0108695652     0.0000000000     0.0000000000 1
    0.0217391304     0.0000000000     0.0000000000 1
    0.0326086957     0.0000000000     0.0000000000 1
    0.0434782609     0.0000000000     0.0000000000 1
    0.0543478261     0.0000000000     0.0000000000 1
    0.0652173913     0.0000000000     0.0000000000 1
    0.0760869565     0.0000000000     0.0000000000 1
    0.0869565217     0.0000000000     0.0000000000 1
    0.0978260870     0.0000000000     0.0000000000 1
    0.1086956522     0.0000000000     0.0000000000 1
    0.1195652174     0.0000000000     0.0000000000 1
    0.1304347826     0.0000000000     0.0000000000 1
    0.1413043478     0.0000000000     0.0000000000 1
    0.1521739130     0.0000000000     0.0000000000 1
    0.1630434783     0.0000000000     0.0000000000 1
    0.1739130435     0.0000000000     0.0000000000 1
    0.1847826087     0.0000000000     0.0000000000 1
    0.1956521739     0.0000000000     0.0000000000 1
    0.2065217391     0.0000000000     0.0000000000 1
    0.2173913043     0.0000000000     0.0000000000 1
    0.2282608696     0.0000000000     0.0000000000 1
    0.2391304348     0.0000000000     0.0000000000 1
    0.2500000000     0.0000000000     0.0000000000 1
    0.2608695652     0.0000000000     0.0000000000 1
    0.2717391304     0.0000000000     0.0000000000 1
    0.2826086957     0.0000000000     0.0000000000 1
    0.2934782609     0.0000000000     0.0000000000 1
    0.3043478261     0.0000000000     0.0000000000 1
    0.3152173913     0.0000000000     0.0000000000 1
    0.3260869565     0.0000000000     0.0000000000 1
    0.3369565217     0.0000000000     0.0000000000 1
    0.3478260870     0.0000000000     0.0000000000 1
    0.3586956522     0.0000000000     0.0000000000 1
    0.3695652174     0.0000000000     0.0000000000 1
    0.3804347826     0.0000000000     0.0000000000 1
    0.3913043478     0.0000000000     0.0000000000 1
    0.4021739130     0.0000000000     0.0000000000 1
    0.4130434783     0.0000000000     0.0000000000 1
    0.4239130435     0.0000000000     0.0000000000 1
    0.4347826087     0.0000000000     0.0000000000 1
    0.4456521739     0.0000000000     0.0000000000 1
    0.4565217391     0.0000000000     0.0000000000 1
    0.4673913043     0.0000000000     0.0000000000 1
    0.4782608696     0.0000000000     0.0000000000 1
    0.4891304348     0.0000000000     0.0000000000 1
    0.5000000000     0.0000000000     0.0000000000 1
    0.4935897436     0.0128205128     0.0000000000 1
    0.4871794872     0.0256410256     0.0000000000 1
    0.4807692308     0.0384615385     0.0000000000 1
    0.4743589744     0.0512820513     0.0000000000 1
    0.4679487179     0.0641025641     0.0000000000 1
    0.4615384615     0.0769230769     0.0000000000 1
    0.4551282051     0.0897435897     0.0000000000 1
    0.4487179487     0.1025641026     0.0000000000 1
    0.4423076923     0.1153846154     0.0000000000 1
    0.4358974359     0.1282051282     0.0000000000 1
    0.4294871795     0.1410256410     0.0000000000 1
    0.4230769231     0.1538461538     0.0000000000 1
    0.4166666667     0.1666666667     0.0000000000 1
    0.4102564103     0.1794871795     0.0000000000 1
    0.4038461538     0.1923076923     0.0000000000 1
    0.3974358974     0.2051282051     0.0000000000 1
    0.3910256410     0.2179487179     0.0000000000 1
    0.3846153846     0.2307692308     0.0000000000 1
    0.3782051282     0.2435897436     0.0000000000 1
    0.3717948718     0.2564102564     0.0000000000 1
    0.3653846154     0.2692307692     0.0000000000 1
    0.3589743590     0.2820512821     0.0000000000 1
    0.3525641026     0.2948717949     0.0000000000 1
    0.3461538462     0.3076923077     0.0000000000 1
    0.3397435897     0.3205128205     0.0000000000 1
    0.3333333333     0.3333333333     0.0000000000 1
    0.3270440252     0.3270440252     0.0000000000 1
    0.3207547170     0.3207547170     0.0000000000 1
    0.3144654088     0.3144654088     0.0000000000 1
    0.3081761006     0.3081761006     0.0000000000 1
    0.3018867925     0.3018867925     0.0000000000 1
    0.2955974843     0.2955974843     0.0000000000 1
    0.2893081761     0.2893081761     0.0000000000 1
    0.2830188679     0.2830188679     0.0000000000 1
    0.2767295597     0.2767295597     0.0000000000 1
    0.2704402516     0.2704402516     0.0000000000 1
    0.2641509434     0.2641509434     0.0000000000 1
    0.2578616352     0.2578616352     0.0000000000 1
    0.2515723270     0.2515723270     0.0000000000 1
    0.2452830189     0.2452830189     0.0000000000 1
    0.2389937107     0.2389937107     0.0000000000 1
    0.2327044025     0.2327044025     0.0000000000 1
    0.2264150943     0.2264150943     0.0000000000 1
    0.2201257862     0.2201257862     0.0000000000 1
    0.2138364780     0.2138364780     0.0000000000 1
    0.2075471698     0.2075471698     0.0000000000 1
    0.2012578616     0.2012578616     0.0000000000 1
    0.1949685535     0.1949685535     0.0000000000 1
    0.1886792453     0.1886792453     0.0000000000 1
    0.1823899371     0.1823899371     0.0000000000 1
    0.1761006289     0.1761006289     0.0000000000 1
    0.1698113208     0.1698113208     0.0000000000 1
    0.1635220126     0.1635220126     0.0000000000 1
    0.1572327044     0.1572327044     0.0000000000 1
    0.1509433962     0.1509433962     0.0000000000 1
    0.1446540881     0.1446540881     0.0000000000 1
    0.1383647799     0.1383647799     0.0000000000 1
    0.1320754717     0.1320754717     0.0000000000 1
    0.1257861635     0.1257861635     0.0000000000 1
    0.1194968553     0.1194968553     0.0000000000 1
    0.1132075472     0.1132075472     0.0000000000 1
    0.1069182390     0.1069182390     0.0000000000 1
    0.1006289308     0.1006289308     0.0000000000 1
    0.0943396226     0.0943396226     0.0000000000 1
    0.0880503145     0.0880503145     0.0000000000 1
    0.0817610063     0.0817610063     0.0000000000 1
    0.0754716981     0.0754716981     0.0000000000 1
    0.0691823899     0.0691823899     0.0000000000 1
    0.0628930818     0.0628930818     0.0000000000 1
    0.0566037736     0.0566037736     0.0000000000 1
    0.0503144654     0.0503144654     0.0000000000 1
    0.0440251572     0.0440251572     0.0000000000 1
    0.0377358491     0.0377358491     0.0000000000 1
    0.0314465409     0.0314465409     0.0000000000 1
    0.0251572327     0.0251572327     0.0000000000 1
    0.0188679245     0.0188679245     0.0000000000 1
    0.0125786164     0.0125786164     0.0000000000 1
    0.0062893082     0.0062893082     0.0000000000 1
    0.0000000000     0.0000000000     0.0000000000 1
    0.0000000000     0.0000000000     0.0147058824 1
    0.0000000000     0.0000000000     0.0294117647 1
    0.0000000000     0.0000000000     0.0441176471 1
    0.0000000000     0.0000000000     0.0588235294 1
    0.0000000000     0.0000000000     0.0735294118 1
    0.0000000000     0.0000000000     0.0882352941 1
    0.0000000000     0.0000000000     0.1029411765 1
    0.0000000000     0.0000000000     0.1176470588 1
    0.0000000000     0.0000000000     0.1323529412 1
    0.0000000000     0.0000000000     0.1470588235 1
    0.0000000000     0.0000000000     0.1617647059 1
    0.0000000000     0.0000000000     0.1764705882 1
    0.0000000000     0.0000000000     0.1911764706 1
    0.0000000000     0.0000000000     0.2058823529 1
    0.0000000000     0.0000000000     0.2205882353 1
    0.0000000000     0.0000000000     0.2352941176 1
    0.0000000000     0.0000000000     0.2500000000 1
    0.0000000000     0.0000000000     0.2647058824 1
    0.0000000000     0.0000000000     0.2794117647 1
    0.0000000000     0.0000000000     0.2941176471 1
    0.0000000000     0.0000000000     0.3088235294 1
    0.0000000000     0.0000000000     0.3235294118 1
    0.0000000000     0.0000000000     0.3382352941 1
    0.0000000000     0.0000000000     0.3529411765 1
    0.0000000000     0.0000000000     0.3676470588 1
    0.0000000000     0.0000000000     0.3823529412 1
    0.0000000000     0.0000000000     0.3970588235 1
    0.0000000000     0.0000000000     0.4117647059 1
    0.0000000000     0.0000000000     0.4264705882 1
    0.0000000000     0.0000000000     0.4411764706 1
    0.0000000000     0.0000000000     0.4558823529 1
    0.0000000000     0.0000000000     0.4705882353 1
    0.0000000000     0.0000000000     0.4852941176 1
    0.0000000000     0.0000000000     0.5000000000 1
    0.0108695652     0.0000000000     0.5000000000 1
    0.0217391304     0.0000000000     0.5000000000 1
    0.0326086957     0.0000000000     0.5000000000 1
    0.0434782609     0.0000000000     0.5000000000 1
    0.0543478261     0.0000000000     0.5000000000 1
    0.0652173913     0.0000000000     0.5000000000 1
    0.0760869565     0.0000000000     0.5000000000 1
    0.0869565217     0.0000000000     0.5000000000 1
    0.0978260870     0.0000000000     0.5000000000 1
    0.1086956522     0.0000000000     0.5000000000 1
    0.1195652174     0.0000000000     0.5000000000 1
    0.1304347826     0.0000000000     0.5000000000 1
    0.1413043478     0.0000000000     0.5000000000 1
    0.1521739130     0.0000000000     0.5000000000 1
    0.1630434783     0.0000000000     0.5000000000 1
    0.1739130435     0.0000000000     0.5000000000 1
    0.1847826087     0.0000000000     0.5000000000 1
    0.1956521739     0.0000000000     0.5000000000 1
    0.2065217391     0.0000000000     0.5000000000 1
    0.2173913043     0.0000000000     0.5000000000 1
    0.2282608696     0.0000000000     0.5000000000 1
    0.2391304348     0.0000000000     0.5000000000 1
    0.2500000000     0.0000000000     0.5000000000 1
    0.2608695652     0.0000000000     0.5000000000 1
    0.2717391304     0.0000000000     0.5000000000 1
    0.2826086957     0.0000000000     0.5000000000 1
    0.2934782609     0.0000000000     0.5000000000 1
    0.3043478261     0.0000000000     0.5000000000 1
    0.3152173913     0.0000000000     0.5000000000 1
    0.3260869565     0.0000000000     0.5000000000 1
    0.3369565217     0.0000000000     0.5000000000 1
    0.3478260870     0.0000000000     0.5000000000 1
    0.3586956522     0.0000000000     0.5000000000 1
    0.3695652174     0.0000000000     0.5000000000 1
    0.3804347826     0.0000000000     0.5000000000 1
    0.3913043478     0.0000000000     0.5000000000 1
    0.4021739130     0.0000000000     0.5000000000 1
    0.4130434783     0.0000000000     0.5000000000 1
    0.4239130435     0.0000000000     0.5000000000 1
    0.4347826087     0.0000000000     0.5000000000 1
    0.4456521739     0.0000000000     0.5000000000 1
    0.4565217391     0.0000000000     0.5000000000 1
    0.4673913043     0.0000000000     0.5000000000 1
    0.4782608696     0.0000000000     0.5000000000 1
    0.4891304348     0.0000000000     0.5000000000 1
    0.5000000000     0.0000000000     0.5000000000 1
    0.4935897436     0.0128205128     0.5000000000 1
    0.4871794872     0.0256410256     0.5000000000 1
    0.4807692308     0.0384615385     0.5000000000 1
    0.4743589744     0.0512820513     0.5000000000 1
    0.4679487179     0.0641025641     0.5000000000 1
    0.4615384615     0.0769230769     0.5000000000 1
    0.4551282051     0.0897435897     0.5000000000 1
    0.4487179487     0.1025641026     0.5000000000 1
    0.4423076923     0.1153846154     0.5000000000 1
    0.4358974359     0.1282051282     0.5000000000 1
    0.4294871795     0.1410256410     0.5000000000 1
    0.4230769231     0.1538461538     0.5000000000 1
    0.4166666667     0.1666666667     0.5000000000 1
    0.4102564103     0.1794871795     0.5000000000 1
    0.4038461538     0.1923076923     0.5000000000 1
    0.3974358974     0.2051282051     0.5000000000 1
    0.3910256410     0.2179487179     0.5000000000 1
    0.3846153846     0.2307692308     0.5000000000 1
    0.3782051282     0.2435897436     0.5000000000 1
    0.3717948718     0.2564102564     0.5000000000 1
    0.3653846154     0.2692307692     0.5000000000 1
    0.3589743590     0.2820512821     0.5000000000 1
    0.3525641026     0.2948717949     0.5000000000 1
    0.3461538462     0.3076923077     0.5000000000 1
    0.3397435897     0.3205128205     0.5000000000 1
    0.3333333333     0.3333333333     0.5000000000 1
    0.3270440252     0.3270440252     0.5000000000 1
    0.3207547170     0.3207547170     0.5000000000 1
    0.3144654088     0.3144654088     0.5000000000 1
    0.3081761006     0.3081761006     0.5000000000 1
    0.3018867925     0.3018867925     0.5000000000 1
    0.2955974843     0.2955974843     0.5000000000 1
    0.2893081761     0.2893081761     0.5000000000 1
    0.2830188679     0.2830188679     0.5000000000 1
    0.2767295597     0.2767295597     0.5000000000 1
    0.2704402516     0.2704402516     0.5000000000 1
    0.2641509434     0.2641509434     0.5000000000 1
    0.2578616352     0.2578616352     0.5000000000 1
    0.2515723270     0.2515723270     0.5000000000 1
    0.2452830189     0.2452830189     0.5000000000 1
    0.2389937107     0.2389937107     0.5000000000 1
    0.2327044025     0.2327044025     0.5000000000 1
    0.2264150943     0.2264150943     0.5000000000 1
    0.2201257862     0.2201257862     0.5000000000 1
    0.2138364780     0.2138364780     0.5000000000 1
    0.2075471698     0.2075471698     0.5000000000 1
    0.2012578616     0.2012578616     0.5000000000 1
    0.1949685535     0.1949685535     0.5000000000 1
    0.1886792453     0.1886792453     0.5000000000 1
    0.1823899371     0.1823899371     0.5000000000 1
    0.1761006289     0.1761006289     0.5000000000 1
    0.1698113208     0.1698113208     0.5000000000 1
    0.1635220126     0.1635220126     0.5000000000 1
    0.1572327044     0.1572327044     0.5000000000 1
    0.1509433962     0.1509433962     0.5000000000 1
    0.1446540881     0.1446540881     0.5000000000 1
    0.1383647799     0.1383647799     0.5000000000 1
    0.1320754717     0.1320754717     0.5000000000 1
    0.1257861635     0.1257861635     0.5000000000 1
    0.1194968553     0.1194968553     0.5000000000 1
    0.1132075472     0.1132075472     0.5000000000 1
    0.1069182390     0.1069182390     0.5000000000 1
    0.1006289308     0.1006289308     0.5000000000 1
    0.0943396226     0.0943396226     0.5000000000 1
    0.0880503145     0.0880503145     0.5000000000 1
    0.0817610063     0.0817610063     0.5000000000 1
    0.0754716981     0.0754716981     0.5000000000 1
    0.0691823899     0.0691823899     0.5000000000 1
    0.0628930818     0.0628930818     0.5000000000 1
    0.0566037736     0.0566037736     0.5000000000 1
    0.0503144654     0.0503144654     0.5000000000 1
    0.0440251572     0.0440251572     0.5000000000 1
    0.0377358491     0.0377358491     0.5000000000 1
    0.0314465409     0.0314465409     0.5000000000 1
    0.0251572327     0.0251572327     0.5000000000 1
    0.0188679245     0.0188679245     0.5000000000 1
    0.0125786164     0.0125786164     0.5000000000 1
    0.0062893082     0.0062893082     0.5000000000 1
    0.0000000000     0.0000000000     0.5000000000 1
    0.5000000000     0.0000000000     0.5000000000 1
    0.5000000000     0.0000000000     0.4852941176 1
    0.5000000000     0.0000000000     0.4705882353 1
    0.5000000000     0.0000000000     0.4558823529 1
    0.5000000000     0.0000000000     0.4411764706 1
    0.5000000000     0.0000000000     0.4264705882 1
    0.5000000000     0.0000000000     0.4117647059 1
    0.5000000000     0.0000000000     0.3970588235 1
    0.5000000000     0.0000000000     0.3823529412 1
    0.5000000000     0.0000000000     0.3676470588 1
    0.5000000000     0.0000000000     0.3529411765 1
    0.5000000000     0.0000000000     0.3382352941 1
    0.5000000000     0.0000000000     0.3235294118 1
    0.5000000000     0.0000000000     0.3088235294 1
    0.5000000000     0.0000000000     0.2941176471 1
    0.5000000000     0.0000000000     0.2794117647 1
    0.5000000000     0.0000000000     0.2647058824 1
    0.5000000000     0.0000000000     0.2500000000 1
    0.5000000000     0.0000000000     0.2352941176 1
    0.5000000000     0.0000000000     0.2205882353 1
    0.5000000000     0.0000000000     0.2058823529 1
    0.5000000000     0.0000000000     0.1911764706 1
    0.5000000000     0.0000000000     0.1764705882 1
    0.5000000000     0.0000000000     0.1617647059 1
    0.5000000000     0.0000000000     0.1470588235 1
    0.5000000000     0.0000000000     0.1323529412 1
    0.5000000000     0.0000000000     0.1176470588 1
    0.5000000000     0.0000000000     0.1029411765 1
    0.5000000000     0.0000000000     0.0882352941 1
    0.5000000000     0.0000000000     0.0735294118 1
    0.5000000000     0.0000000000     0.0588235294 1
    0.5000000000     0.0000000000     0.0441176471 1
    0.5000000000     0.0000000000     0.0294117647 1
    0.5000000000     0.0000000000     0.0147058824 1
    0.5000000000     0.0000000000     0.0000000000 1
    0.3333333333     0.3333333333     0.5000000000 1
    0.3333333333     0.3333333333     0.4852941176 1
    0.3333333333     0.3333333333     0.4705882353 1
    0.3333333333     0.3333333333     0.4558823529 1
    0.3333333333     0.3333333333     0.4411764706 1
    0.3333333333     0.3333333333     0.4264705882 1
    0.3333333333     0.3333333333     0.4117647059 1
    0.3333333333     0.3333333333     0.3970588235 1
    0.3333333333     0.3333333333     0.3823529412 1
    0.3333333333     0.3333333333     0.3676470588 1
    0.3333333333     0.3333333333     0.3529411765 1
    0.3333333333     0.3333333333     0.3382352941 1
    0.3333333333     0.3333333333     0.3235294118 1
    0.3333333333     0.3333333333     0.3088235294 1
    0.3333333333     0.3333333333     0.2941176471 1
    0.3333333333     0.3333333333     0.2794117647 1
    0.3333333333     0.3333333333     0.2647058824 1
    0.3333333333     0.3333333333     0.2500000000 1
    0.3333333333     0.3333333333     0.2352941176 1
    0.3333333333     0.3333333333     0.2205882353 1
    0.3333333333     0.3333333333     0.2058823529 1
    0.3333333333     0.3333333333     0.1911764706 1
    0.3333333333     0.3333333333     0.1764705882 1
    0.3333333333     0.3333333333     0.1617647059 1
    0.3333333333     0.3333333333     0.1470588235 1
    0.3333333333     0.3333333333     0.1323529412 1
    0.3333333333     0.3333333333     0.1176470588 1
    0.3333333333     0.3333333333     0.1029411765 1
    0.3333333333     0.3333333333     0.0882352941 1
    0.3333333333     0.3333333333     0.0735294118 1
    0.3333333333     0.3333333333     0.0588235294 1
    0.3333333333     0.3333333333     0.0441176471 1
    0.3333333333     0.3333333333     0.0294117647 1
    0.3333333333     0.3333333333     0.0147058824 1
    0.3333333333     0.3333333333     0.0000000000 1
